(set-logic QF_ABV)
(set-option :produce-models true)

(define-sort PD () (_ BitVec 6))
(define-sort PD<> () (_ BitVec 6))
(declare-fun <PD00> () PD<>)
(declare-fun <PD01> () PD<>)
(declare-fun <PD02> () PD<>)
(declare-fun <PD03> () PD<>)
(declare-fun <PD04> () PD<>)
(declare-fun <PD05> () PD<>)
(declare-fun <PD06> () PD<>)
(declare-fun <PD07> () PD<>)
(declare-fun <PD08> () PD<>)
(declare-fun <PD09> () PD<>)
(declare-fun <PD10> () PD<>)
(declare-fun <PD11> () PD<>)
(declare-fun <PD12> () PD<>)
(declare-fun <PD13> () PD<>)
(declare-fun <PD14> () PD<>)
(declare-fun <PD15> () PD<>)
(declare-fun <PD16> () PD<>)
(declare-fun <PD17> () PD<>)
(declare-fun <PD18> () PD<>)
(declare-fun <PD19> () PD<>)
(declare-fun <PD20> () PD<>)
(declare-fun <PD21> () PD<>)
(declare-fun <PD22> () PD<>)
(declare-fun <PD23> () PD<>)
(declare-fun <PD24> () PD<>)
(declare-fun <PD25> () PD<>)
(declare-fun <PD26> () PD<>)
(declare-fun <PD27> () PD<>)
(declare-fun <PD28> () PD<>)
(declare-fun <PD29> () PD<>)
(declare-fun <PD30> () PD<>)
(declare-fun <PD31> () PD<>)
(declare-fun <PD32> () PD<>)
(declare-fun <PD33> () PD<>)
(declare-fun <PD34> () PD<>)
(declare-fun <PD35> () PD<>)
(declare-fun <PD36> () PD<>)
(declare-fun <PD37> () PD<>)
(declare-fun <PD38> () PD<>)
(declare-fun <PD39> () PD<>)
(declare-fun <PD40> () PD<>)
(declare-fun <PD41> () PD<>)
(declare-fun <PD42> () PD<>)
(declare-fun <PD43> () PD<>)
(declare-fun <PD44> () PD<>)
(declare-fun <PD45> () PD<>)
(declare-fun <PD46> () PD<>)
(declare-fun <PD47> () PD<>)
(declare-fun <PD48> () PD<>)
(declare-fun <PD49> () PD<>)
(declare-fun <PD50> () PD<>)
(declare-fun <PD51> () PD<>)
(declare-fun <PD52> () PD<>)
(declare-fun <PD53> () PD<>)
(declare-fun <PD54> () PD<>)
(declare-fun <PD55> () PD<>)
(declare-fun <PD56> () PD<>)
(declare-fun <PD57> () PD<>)
(declare-fun <PD58> () PD<>)
(declare-fun <PD59> () PD<>)
(declare-fun <PD60> () PD<>)
(declare-fun <PD61> () PD<>)
(declare-fun <PD62> () PD<>)
(assert (distinct <PD00> <PD01> <PD02> <PD03> <PD04> <PD05> <PD06> <PD07> <PD08> <PD09> <PD10> <PD11> <PD12> <PD13> <PD14> <PD15> <PD16> <PD17> <PD18> <PD19> <PD20> <PD21> <PD22> <PD23> <PD24> <PD25> <PD26> <PD27> <PD28> <PD29> <PD30> <PD31> <PD32> <PD33> <PD34> <PD35> <PD36> <PD37> <PD38> <PD39> <PD40> <PD41> <PD42> <PD43> <PD44> <PD45> <PD46> <PD47> <PD48> <PD49> <PD50> <PD51> <PD52> <PD53> <PD54> <PD55> <PD56> <PD57> <PD58> <PD59> <PD60> <PD61> <PD62>))
(define-fun PD.<> ((v PD)) PD<> ((_ extract 5 0) v))
(define-fun PD00 () PD <PD00>)
(define-fun PD01 () PD <PD01>)
(define-fun PD02 () PD <PD02>)
(define-fun PD03 () PD <PD03>)
(define-fun PD04 () PD <PD04>)
(define-fun PD05 () PD <PD05>)
(define-fun PD06 () PD <PD06>)
(define-fun PD07 () PD <PD07>)
(define-fun PD08 () PD <PD08>)
(define-fun PD09 () PD <PD09>)
(define-fun PD10 () PD <PD10>)
(define-fun PD11 () PD <PD11>)
(define-fun PD12 () PD <PD12>)
(define-fun PD13 () PD <PD13>)
(define-fun PD14 () PD <PD14>)
(define-fun PD15 () PD <PD15>)
(define-fun PD16 () PD <PD16>)
(define-fun PD17 () PD <PD17>)
(define-fun PD18 () PD <PD18>)
(define-fun PD19 () PD <PD19>)
(define-fun PD20 () PD <PD20>)
(define-fun PD21 () PD <PD21>)
(define-fun PD22 () PD <PD22>)
(define-fun PD23 () PD <PD23>)
(define-fun PD24 () PD <PD24>)
(define-fun PD25 () PD <PD25>)
(define-fun PD26 () PD <PD26>)
(define-fun PD27 () PD <PD27>)
(define-fun PD28 () PD <PD28>)
(define-fun PD29 () PD <PD29>)
(define-fun PD30 () PD <PD30>)
(define-fun PD31 () PD <PD31>)
(define-fun PD32 () PD <PD32>)
(define-fun PD33 () PD <PD33>)
(define-fun PD34 () PD <PD34>)
(define-fun PD35 () PD <PD35>)
(define-fun PD36 () PD <PD36>)
(define-fun PD37 () PD <PD37>)
(define-fun PD38 () PD <PD38>)
(define-fun PD39 () PD <PD39>)
(define-fun PD40 () PD <PD40>)
(define-fun PD41 () PD <PD41>)
(define-fun PD42 () PD <PD42>)
(define-fun PD43 () PD <PD43>)
(define-fun PD44 () PD <PD44>)
(define-fun PD45 () PD <PD45>)
(define-fun PD46 () PD <PD46>)
(define-fun PD47 () PD <PD47>)
(define-fun PD48 () PD <PD48>)
(define-fun PD49 () PD <PD49>)
(define-fun PD50 () PD <PD50>)
(define-fun PD51 () PD <PD51>)
(define-fun PD52 () PD <PD52>)
(define-fun PD53 () PD <PD53>)
(define-fun PD54 () PD <PD54>)
(define-fun PD55 () PD <PD55>)
(define-fun PD56 () PD <PD56>)
(define-fun PD57 () PD <PD57>)
(define-fun PD58 () PD <PD58>)
(define-fun PD59 () PD <PD59>)
(define-fun PD60 () PD <PD60>)
(define-fun PD61 () PD <PD61>)
(define-fun PD62 () PD <PD62>)
(define-sort Ch () (_ BitVec 6))
(define-sort Ch<> () (_ BitVec 6))
(declare-fun <Ch00> () Ch<>)
(declare-fun <Ch01> () Ch<>)
(declare-fun <Ch02> () Ch<>)
(declare-fun <Ch03> () Ch<>)
(declare-fun <Ch04> () Ch<>)
(declare-fun <Ch05> () Ch<>)
(declare-fun <Ch06> () Ch<>)
(declare-fun <Ch07> () Ch<>)
(declare-fun <Ch08> () Ch<>)
(declare-fun <Ch09> () Ch<>)
(declare-fun <Ch10> () Ch<>)
(declare-fun <Ch11> () Ch<>)
(declare-fun <Ch12> () Ch<>)
(declare-fun <Ch13> () Ch<>)
(declare-fun <Ch14> () Ch<>)
(declare-fun <Ch15> () Ch<>)
(declare-fun <Ch16> () Ch<>)
(declare-fun <Ch17> () Ch<>)
(declare-fun <Ch18> () Ch<>)
(declare-fun <Ch19> () Ch<>)
(declare-fun <Ch20> () Ch<>)
(declare-fun <Ch21> () Ch<>)
(declare-fun <Ch22> () Ch<>)
(declare-fun <Ch23> () Ch<>)
(declare-fun <Ch24> () Ch<>)
(declare-fun <Ch25> () Ch<>)
(declare-fun <Ch26> () Ch<>)
(declare-fun <Ch27> () Ch<>)
(declare-fun <Ch28> () Ch<>)
(declare-fun <Ch29> () Ch<>)
(declare-fun <Ch30> () Ch<>)
(declare-fun <Ch31> () Ch<>)
(declare-fun <Ch32> () Ch<>)
(declare-fun <Ch33> () Ch<>)
(declare-fun <Ch34> () Ch<>)
(declare-fun <Ch35> () Ch<>)
(declare-fun <Ch36> () Ch<>)
(declare-fun <Ch37> () Ch<>)
(declare-fun <Ch38> () Ch<>)
(declare-fun <Ch39> () Ch<>)
(declare-fun <Ch40> () Ch<>)
(declare-fun <Ch41> () Ch<>)
(declare-fun <Ch42> () Ch<>)
(declare-fun <Ch43> () Ch<>)
(declare-fun <Ch44> () Ch<>)
(declare-fun <Ch45> () Ch<>)
(declare-fun <Ch46> () Ch<>)
(declare-fun <Ch47> () Ch<>)
(declare-fun <Ch48> () Ch<>)
(declare-fun <Ch49> () Ch<>)
(declare-fun <Ch50> () Ch<>)
(declare-fun <Ch51> () Ch<>)
(declare-fun <Ch52> () Ch<>)
(declare-fun <Ch53> () Ch<>)
(declare-fun <Ch54> () Ch<>)
(declare-fun <Ch55> () Ch<>)
(declare-fun <Ch56> () Ch<>)
(declare-fun <Ch57> () Ch<>)
(declare-fun <Ch58> () Ch<>)
(declare-fun <Ch59> () Ch<>)
(declare-fun <Ch60> () Ch<>)
(declare-fun <Ch61> () Ch<>)
(declare-fun <Ch62> () Ch<>)
(assert (distinct <Ch00> <Ch01> <Ch02> <Ch03> <Ch04> <Ch05> <Ch06> <Ch07> <Ch08> <Ch09> <Ch10> <Ch11> <Ch12> <Ch13> <Ch14> <Ch15> <Ch16> <Ch17> <Ch18> <Ch19> <Ch20> <Ch21> <Ch22> <Ch23> <Ch24> <Ch25> <Ch26> <Ch27> <Ch28> <Ch29> <Ch30> <Ch31> <Ch32> <Ch33> <Ch34> <Ch35> <Ch36> <Ch37> <Ch38> <Ch39> <Ch40> <Ch41> <Ch42> <Ch43> <Ch44> <Ch45> <Ch46> <Ch47> <Ch48> <Ch49> <Ch50> <Ch51> <Ch52> <Ch53> <Ch54> <Ch55> <Ch56> <Ch57> <Ch58> <Ch59> <Ch60> <Ch61> <Ch62>))
(define-fun Ch.<> ((v Ch)) Ch<> ((_ extract 5 0) v))
(define-fun Ch00 () Ch <Ch00>)
(define-fun Ch01 () Ch <Ch01>)
(define-fun Ch02 () Ch <Ch02>)
(define-fun Ch03 () Ch <Ch03>)
(define-fun Ch04 () Ch <Ch04>)
(define-fun Ch05 () Ch <Ch05>)
(define-fun Ch06 () Ch <Ch06>)
(define-fun Ch07 () Ch <Ch07>)
(define-fun Ch08 () Ch <Ch08>)
(define-fun Ch09 () Ch <Ch09>)
(define-fun Ch10 () Ch <Ch10>)
(define-fun Ch11 () Ch <Ch11>)
(define-fun Ch12 () Ch <Ch12>)
(define-fun Ch13 () Ch <Ch13>)
(define-fun Ch14 () Ch <Ch14>)
(define-fun Ch15 () Ch <Ch15>)
(define-fun Ch16 () Ch <Ch16>)
(define-fun Ch17 () Ch <Ch17>)
(define-fun Ch18 () Ch <Ch18>)
(define-fun Ch19 () Ch <Ch19>)
(define-fun Ch20 () Ch <Ch20>)
(define-fun Ch21 () Ch <Ch21>)
(define-fun Ch22 () Ch <Ch22>)
(define-fun Ch23 () Ch <Ch23>)
(define-fun Ch24 () Ch <Ch24>)
(define-fun Ch25 () Ch <Ch25>)
(define-fun Ch26 () Ch <Ch26>)
(define-fun Ch27 () Ch <Ch27>)
(define-fun Ch28 () Ch <Ch28>)
(define-fun Ch29 () Ch <Ch29>)
(define-fun Ch30 () Ch <Ch30>)
(define-fun Ch31 () Ch <Ch31>)
(define-fun Ch32 () Ch <Ch32>)
(define-fun Ch33 () Ch <Ch33>)
(define-fun Ch34 () Ch <Ch34>)
(define-fun Ch35 () Ch <Ch35>)
(define-fun Ch36 () Ch <Ch36>)
(define-fun Ch37 () Ch <Ch37>)
(define-fun Ch38 () Ch <Ch38>)
(define-fun Ch39 () Ch <Ch39>)
(define-fun Ch40 () Ch <Ch40>)
(define-fun Ch41 () Ch <Ch41>)
(define-fun Ch42 () Ch <Ch42>)
(define-fun Ch43 () Ch <Ch43>)
(define-fun Ch44 () Ch <Ch44>)
(define-fun Ch45 () Ch <Ch45>)
(define-fun Ch46 () Ch <Ch46>)
(define-fun Ch47 () Ch <Ch47>)
(define-fun Ch48 () Ch <Ch48>)
(define-fun Ch49 () Ch <Ch49>)
(define-fun Ch50 () Ch <Ch50>)
(define-fun Ch51 () Ch <Ch51>)
(define-fun Ch52 () Ch <Ch52>)
(define-fun Ch53 () Ch <Ch53>)
(define-fun Ch54 () Ch <Ch54>)
(define-fun Ch55 () Ch <Ch55>)
(define-fun Ch56 () Ch <Ch56>)
(define-fun Ch57 () Ch <Ch57>)
(define-fun Ch58 () Ch <Ch58>)
(define-fun Ch59 () Ch <Ch59>)
(define-fun Ch60 () Ch <Ch60>)
(define-fun Ch61 () Ch <Ch61>)
(define-fun Ch62 () Ch <Ch62>)
(define-sort Word64 () (_ BitVec 64))
(define-sort Word16 () (_ BitVec 16))

; Set Ch
(define-sort Ch_set () (_ BitVec 64))
(define-fun Ch_set_empty () Ch_set (_ bv0 64))
(define-fun Ch_set_singleton ((x Ch)) Ch_set (bvshl (_ bv1 64) ((_ zero_extend 58) x)))
(define-fun Ch_set_intersection ((s1 Ch_set) (s2 Ch_set)) Ch_set (bvand s1 s2))
(define-fun Ch_set_union ((s1 Ch_set) (s2 Ch_set)) Ch_set (bvor s1 s2))
(define-fun Ch_set_has ((s Ch_set) (x Ch)) Bool (bvult (_ bv0 64) (bvand s (Ch_set_singleton x))))
(define-fun Ch_set_add ((s Ch_set) (x Ch)) Ch_set (Ch_set_union s (Ch_set_singleton x)))
(define-fun Ch_set_remove ((s Ch_set) (x Ch)) Ch_set (Ch_set_intersection s (Ch_set_singleton x)))

; data MsgInfo = MI
;   { label :: Word64
;   , count :: Word16
;   }
(define-sort MsgInfo () (_ BitVec 80))
(define-fun MI ((a Word64) (b Word16)) MsgInfo (concat a b))
(define-fun label ((c MsgInfo)) Word64 ((_ extract 79 16) c))
(define-fun label= ((c MsgInfo) (v Word64)) MsgInfo (concat v ((_ extract 15 0) c)))
(define-fun count ((c MsgInfo)) Word16 ((_ extract 15 0) c))
(define-fun count= ((c MsgInfo) (v Word16)) MsgInfo (concat ((_ extract 79 16) c) v))

; type Prod_Ch_MsgInfo = (Ch, MsgInfo)
(define-sort Prod_Ch_MsgInfo () (_ BitVec 86))
(define-fun Prod_Ch_MsgInfo ((fst Ch) (snd MsgInfo)) Prod_Ch_MsgInfo (concat fst snd))
(define-fun Prod_Ch_MsgInfo.fst ((p Prod_Ch_MsgInfo)) Ch ((_ extract 85 80) p))
(define-fun Prod_Ch_MsgInfo.snd ((p Prod_Ch_MsgInfo)) MsgInfo ((_ extract 79 0) p))
(define-fun Prod_Ch_MsgInfo.fst= ((p Prod_Ch_MsgInfo) (x Ch)) Prod_Ch_MsgInfo (concat x (Prod_Ch_MsgInfo.snd p)))
(define-fun Prod_Ch_MsgInfo.snd= ((p Prod_Ch_MsgInfo) (x MsgInfo)) Prod_Ch_MsgInfo (concat (Prod_Ch_MsgInfo.fst p) x))

(define-sort NextRecv () (_ BitVec 88))
(define-sort NextRecv<> () (_ BitVec 2))
(declare-fun <Notification> () NextRecv<>)
(declare-fun <PPCall> () NextRecv<>)
(declare-fun <Unknown> () NextRecv<>)
(assert (distinct <Notification> <PPCall> <Unknown>))
(define-fun NextRecv.<> ((v NextRecv)) NextRecv<> ((_ extract 87 86) v))
(define-fun Notification.1 ((v NextRecv)) Ch_set ((_ extract 85 22) v))
(define-fun Notification ((a Ch_set)) NextRecv (concat <Notification> (concat a (_ bv0 22))))
(define-fun PPCall.1 ((v NextRecv)) Prod_Ch_MsgInfo ((_ extract 85 0) v))
(define-fun PPCall ((a Prod_Ch_MsgInfo)) NextRecv (concat <PPCall> a))
(define-fun Unknown () NextRecv (concat <Unknown> (_ bv0 86)))
(define-sort Maybe_MsgInfo () (_ BitVec 81))
(define-sort Maybe_MsgInfo<> () (_ BitVec 1))
(declare-fun <MsgInfo_Nothing> () Maybe_MsgInfo<>)
(declare-fun <MsgInfo_Just> () Maybe_MsgInfo<>)
(assert (distinct <MsgInfo_Nothing> <MsgInfo_Just>))
(define-fun Maybe_MsgInfo.<> ((v Maybe_MsgInfo)) Maybe_MsgInfo<> ((_ extract 80 80) v))
(define-fun MsgInfo_Nothing () Maybe_MsgInfo (concat <MsgInfo_Nothing> (_ bv0 80)))
(define-fun MsgInfo_Just.1 ((v Maybe_MsgInfo)) MsgInfo ((_ extract 79 0) v))
(define-fun MsgInfo_Just ((a MsgInfo)) Maybe_MsgInfo (concat <MsgInfo_Just> a))
(define-sort Maybe_Prod_Ch_MsgInfo () (_ BitVec 87))
(define-sort Maybe_Prod_Ch_MsgInfo<> () (_ BitVec 1))
(declare-fun <Prod_Ch_MsgInfo_Nothing> () Maybe_Prod_Ch_MsgInfo<>)
(declare-fun <Prod_Ch_MsgInfo_Just> () Maybe_Prod_Ch_MsgInfo<>)
(assert (distinct <Prod_Ch_MsgInfo_Nothing> <Prod_Ch_MsgInfo_Just>))
(define-fun Maybe_Prod_Ch_MsgInfo.<> ((v Maybe_Prod_Ch_MsgInfo)) Maybe_Prod_Ch_MsgInfo<> ((_ extract 86 86) v))
(define-fun Prod_Ch_MsgInfo_Nothing () Maybe_Prod_Ch_MsgInfo (concat <Prod_Ch_MsgInfo_Nothing> (_ bv0 86)))
(define-fun Prod_Ch_MsgInfo_Just.1 ((v Maybe_Prod_Ch_MsgInfo)) Prod_Ch_MsgInfo ((_ extract 85 0) v))
(define-fun Prod_Ch_MsgInfo_Just ((a Prod_Ch_MsgInfo)) Maybe_Prod_Ch_MsgInfo (concat <Prod_Ch_MsgInfo_Just> a))
; data PlatformContext = LC
;   { lc_running_pd :: PD
;   , lc_receive_oracle :: NextRecv
;   , lc_unhandled_notified :: Ch_set
;   , lc_last_handled_notified :: Ch_set
;   , lc_unhandled_ppcall :: Maybe_Prod_Ch_MsgInfo
;   , lc_unhandled_reply :: Maybe_MsgInfo
;   , lc_last_handled_reply :: Maybe_MsgInfo
;   }
(define-sort PlatformContext () (_ BitVec 471))
(define-fun LC ((a PD) (b NextRecv) (c Ch_set) (d Ch_set) (e Maybe_Prod_Ch_MsgInfo) (f Maybe_MsgInfo) (g Maybe_MsgInfo)) PlatformContext (concat a (concat b (concat c (concat d (concat e (concat f g)))))))
(define-fun lc_running_pd ((c PlatformContext)) PD ((_ extract 470 465) c))
(define-fun lc_running_pd= ((c PlatformContext) (v PD)) PlatformContext (concat v ((_ extract 464 0) c)))
(define-fun lc_receive_oracle ((c PlatformContext)) NextRecv ((_ extract 464 377) c))
(define-fun lc_receive_oracle= ((c PlatformContext) (v NextRecv)) PlatformContext (concat ((_ extract 470 465) c) (concat v ((_ extract 376 0) c))))
(define-fun lc_unhandled_notified ((c PlatformContext)) Ch_set ((_ extract 376 313) c))
(define-fun lc_unhandled_notified= ((c PlatformContext) (v Ch_set)) PlatformContext (concat ((_ extract 470 377) c) (concat v ((_ extract 312 0) c))))
(define-fun lc_last_handled_notified ((c PlatformContext)) Ch_set ((_ extract 312 249) c))
(define-fun lc_last_handled_notified= ((c PlatformContext) (v Ch_set)) PlatformContext (concat ((_ extract 470 313) c) (concat v ((_ extract 248 0) c))))
(define-fun lc_unhandled_ppcall ((c PlatformContext)) Maybe_Prod_Ch_MsgInfo ((_ extract 248 162) c))
(define-fun lc_unhandled_ppcall= ((c PlatformContext) (v Maybe_Prod_Ch_MsgInfo)) PlatformContext (concat ((_ extract 470 249) c) (concat v ((_ extract 161 0) c))))
(define-fun lc_unhandled_reply ((c PlatformContext)) Maybe_MsgInfo ((_ extract 161 81) c))
(define-fun lc_unhandled_reply= ((c PlatformContext) (v Maybe_MsgInfo)) PlatformContext (concat ((_ extract 470 162) c) (concat v ((_ extract 80 0) c))))
(define-fun lc_last_handled_reply ((c PlatformContext)) Maybe_MsgInfo ((_ extract 80 0) c))
(define-fun lc_last_handled_reply= ((c PlatformContext) (v Maybe_MsgInfo)) PlatformContext (concat ((_ extract 470 81) c) v))

(define-fun C_channel_to_SMT_channel ((cc (_ BitVec 64))) Ch ((_ extract 5 0) cc))
(define-fun C_channel_valid ((cc (_ BitVec 64))) Bool (bvule cc (_ bv62 64)))
; end of prelude
